2
1000 1000 
50
137 188 30
143 224 72
301 195 4
278 269 88
139 110 54
353 388 64
285 367 90
303 314 26
272 297 94
160 182 28
334 236 72
359 225 49
203 315 54
232 175 19
313 169 28
113 166 61
298 131 84
135 132 23
191 334 67
232 105 53
125 111 54
136 220 16
333 396 9
281 109 54
249 123 77
301 105 80
306 123 68
229 343 39
137 132 25
198 156 74
377 281 14
141 176 53
257 205 35
392 237 100
312 237 39
184 273 82
274 210 62
350 316 80
278 357 94
325 201 4
256 112 100
240 160 93
242 209 95
330 226 8
369 279 7
327 234 90
271 358 84
366 117 10
280 277 13
379 207 63
